Route #1: 1 32 9 16 29 28 20 25 1
Route #2: 1 8 6 22 33 38 43 12 11 27 10 1
Route #3: 1 5 35 40 13 4 7 26 1
Route #4: 1 3 23 37 42 15 39 44 1
Route #5: 1 14 36 2 19 21 17 34 1
Route #6: 1 18 30 41 24 31 1
cost 1084.486313541564
